; benchmark generated from python API
(set-info :status unknown)
(declare-fun S_4 () Real)
(declare-fun L_0 () Real)
(declare-fun A_0 () Real)
(declare-fun A_1 () Real)
(declare-fun A_4 () Real)
(declare-fun A_5 () Real)
(declare-fun A_3 () Real)
(declare-fun A_2 () Real)
(declare-fun S_5 () Real)
(declare-fun S_3 () Real)
(declare-fun S_2 () Real)
(declare-fun S_1 () Real)
(declare-fun S_0 () Real)
(declare-fun C () Real)
(declare-fun B () Real)
(declare-fun a () Real)
(assert
 (exists ((I_0 Real) (I_1 Real) (I_2 Real) (I_3 Real) (I_4 Real) (I_5 Real) (L_1 Real) (L_2 Real) (L_3 Real) (L_4 Real) (L_5 Real) )(let ((?x40 (- A_0 L_0)))
 (let (($x148 (<= ?x40 S_4)))
 (let (($x146 (>= A_5 A_4)))
 (let (($x145 (>= A_4 A_3)))
 (let (($x144 (>= A_3 A_2)))
 (let (($x143 (>= A_2 A_1)))
 (let (($x142 (>= A_1 A_0)))
 (let (($x140 (>= S_5 S_4)))
 (let (($x137 (>= S_4 S_3)))
 (let (($x134 (>= S_3 S_2)))
 (let (($x131 (>= S_2 S_1)))
 (let (($x128 (>= S_1 S_0)))
 (let ((?x176 (- A_5 L_5)))
 (let ((?x98 (* C 1.0)))
 (let ((?x177 (+ I_4 ?x98)))
 (let (($x185 (= I_4 (ite (< (+ I_3 ?x98) (- A_4 L_4)) (+ I_3 ?x98) (- A_4 L_4)))))
 (let (($x190 (= I_3 (ite (< (+ I_2 ?x98) (- A_3 L_3)) (+ I_2 ?x98) (- A_3 L_3)))))
 (let (($x195 (= I_2 (ite (< (+ I_1 ?x98) (- A_2 L_2)) (+ I_1 ?x98) (- A_2 L_2)))))
 (let (($x199 (= I_1 (ite (< (+ I_0 ?x98) (- A_1 L_1)) (+ I_0 ?x98) (- A_1 L_1)))))
 (let (($x200 (= L_5 L_4)))
 (let (($x205 (=> (not (> (- (- A_5 L_4) I_5) B)) $x200)))
 (let (($x203 (> (- (- A_5 L_4) I_5) B)))
 (let (($x209 (=> $x203 (= L_5 (- (- A_5 I_5) B)))))
 (let (($x210 (= L_4 L_3)))
 (let (($x215 (=> (not (> (- (- A_4 L_3) I_4) B)) $x210)))
 (let (($x213 (> (- (- A_4 L_3) I_4) B)))
 (let (($x219 (=> $x213 (= L_4 (- (- A_4 I_4) B)))))
 (let (($x220 (= L_3 L_2)))
 (let (($x225 (=> (not (> (- (- A_3 L_2) I_3) B)) $x220)))
 (let (($x223 (> (- (- A_3 L_2) I_3) B)))
 (let (($x229 (=> $x223 (= L_3 (- (- A_3 I_3) B)))))
 (let (($x230 (= L_2 L_1)))
 (let (($x235 (=> (not (> (- (- A_2 L_1) I_2) B)) $x230)))
 (let (($x233 (> (- (- A_2 L_1) I_2) B)))
 (let (($x239 (=> $x233 (= L_2 (- (- A_2 I_2) B)))))
 (let (($x240 (= L_1 L_0)))
 (let (($x244 (=> (not (> (- (- A_1 L_0) I_1) B)) $x240)))
 (let (($x242 (> (- (- A_1 L_0) I_1) B)))
 (let (($x248 (=> $x242 (= L_1 (- (- A_1 I_1) B)))))
 (let (($x47 (= a 1.0)))
 (let ((?x43 (* 5.0 a)))
 (let (($x45 (>= B ?x43)))
 (let (($x44 (>= C ?x43)))
 (let (($x39 (>= L_0 0.0)))
 (and $x39 (<= I_0 ?x40) $x44 $x45 $x47 $x248 $x244 $x239 $x235 $x229 $x225 $x219 $x215 $x209 $x205 $x248 $x244 $x239 $x235 $x229 $x225 $x219 $x215 $x209 $x205 $x199 $x195 $x190 $x185 (= I_5 (ite (< ?x177 ?x176) ?x177 ?x176)) (>= S_0 (- I_0 ?x98)) (<= S_0 I_0) (>= S_1 I_0) $x128 (<= S_1 I_1) (>= S_2 I_1) $x131 (<= S_2 I_2) (>= S_3 I_2) $x134 (<= S_3 I_3) (>= S_4 I_3) $x137 (<= S_4 I_4) (>= S_5 I_4) $x140 (<= S_5 I_5) $x142 $x143 $x144 $x145 $x146 (> (- A_1 L_1) S_4) $x148))))))))))))))))))))))))))))))))))))))))))))))
 )
(check-sat)
